Gurobi Optimizer version 10.0.3 build v10.0.3rc0 (win64)

CPU model: 13th Gen Intel(R) Core(TM) i7-13700T, instruction set [SSE2|AVX|AVX2]
Thread count: 16 physical cores, 24 logical processors, using up to 24 threads

Optimize a model with 441205 rows, 785429 columns and 1253605 nonzeros
Model fingerprint: 0x4d78186f
Variable types: 0 continuous, 785429 integer (138720 binary)
Coefficient statistics:
  Matrix range     [1e+00, 1e+00]
  Objective range  [7e+00, 3e+02]
  Bounds range     [1e+00, 1e+00]
  RHS range        [1e+00, 6e+02]
Presolve removed 441205 rows and 785429 columns
Presolve time: 0.39s
Presolve: All rows and columns removed

Explored 0 nodes (0 simplex iterations) in 0.54 seconds (0.94 work units)
Thread count was 1 (of 24 available processors)

Solution count 1: 103305 

Optimal solution found (tolerance 1.00e-04)
Best objective 1.033046900000e+05, best bound 1.033046900000e+05, gap 0.0000%
Valor da função objetivo:  103304.69

Tempo para criar o modelo:  10.733344793319702
